\ Model idol-model
\ LP format - for model browsing. Use MPS format to capture full model detail.
\ Signature: 0xf849d5f61695b0ad
Minimize
  19 y0 + 39 y1 + 5 y2 + 70 y3 + 19 y4 + 14 y5 + 90 y6 + 33 y7 + 80 y8
   + 98 y9 + 11 y10 + 10 y11 + 55 y12 + 88 y13 + 15 y14 + 49 y15 + 86 y16
   + 63 y17 + 63 y18 + 19 y19 + 94 y20 + 82 y21 + 58 y22 + 45 y23 + 95 y24
   + 61 y25 + 97 y26 + 54 y27 + 43 y28 + 93 y29 + 51 y30 + y31 + 23 y32
   + 34 y33 + 53 y34 + 68 y35 + 28 y36 + 79 y37 + 58 y38 + 53 y39 + 74 y40
   + 6 y41 + 55 y42 + 49 y43 + 12 y44 + 71 y45 + 72 y46 + 87 y47 + 22 y48
   + 37 y49 + 37 y50 + 25 y51 + 17 y52 + 45 y53 + 81 y54
Subject To
 KL: 45 x0 + 45 x1 + 31 x2 + 40 x3 + 79 x4 + 69 x5 + 50 x6 + 65 x7 + 38 x8
   + 21 x9 + x10 + 28 x11 + 60 x12 + 89 x13 + 83 x14 + 52 x15 + 99 x16
   + 47 x17 + 84 x18 + 41 x19 + 75 x20 + 99 x21 + 31 x22 + 18 x23 + 63 x24
   + 54 x25 + 36 x26 + x27 + 39 x28 + 43 x29 + 41 x30 + 87 x31 + 59 x32
   + 74 x33 + 90 x34 + 75 x35 + 50 x36 + 75 x37 + 65 x38 + 65 x39 + 63 x40
   + 41 x41 + 63 x42 + 64 x43 + 94 x44 + 79 x45 + 85 x46 + 77 x47 + 82 x48
   + 61 x49 + 35 x50 + 27 x51 + 71 x52 + 88 x53 + 55 x54 <= 2398
 KF: y0 + 52 y1 + 63 y2 + 86 y3 + 57 y4 + 2 y5 + 82 y6 + 38 y7 + 31 y8
   + 63 y9 + 5 y10 + 25 y11 + 28 y12 + 96 y13 + 39 y14 + 56 y15 + 41 y16
   + 15 y17 + 73 y18 + 99 y19 + 23 y20 + 75 y21 + 68 y22 + 59 y23 + 8 y24
   + 4 y25 + 95 y26 + 25 y27 + 13 y28 + 85 y29 + 43 y30 + 90 y31 + 4 y32
   + 16 y33 + 64 y34 + 47 y35 + 45 y36 + 57 y37 + 87 y38 + 68 y39 + 82 y40
   + 49 y41 + 44 y42 + 14 y43 + 40 y44 + 42 y45 + 63 y46 + 51 y47 + 97 y48
   + 73 y49 + 28 y50 + 46 y51 + 14 y52 + 62 y53 + 13 y54 <= 2405
 I0: x0 + y0 <= 1
 I1: x1 + y1 <= 1
 I2: x2 + y2 <= 1
 I3: x3 + y3 <= 1
 I4: x4 + y4 <= 1
 I5: x5 + y5 <= 1
 I6: x6 + y6 <= 1
 I7: x7 + y7 <= 1
 I8: x8 + y8 <= 1
 I9: x9 + y9 <= 1
 I10: x10 + y10 <= 1
 I11: x11 + y11 <= 1
 I12: x12 + y12 <= 1
 I13: x13 + y13 <= 1
 I14: x14 + y14 <= 1
 I15: x15 + y15 <= 1
 I16: x16 + y16 <= 1
 I17: x17 + y17 <= 1
 I18: x18 + y18 <= 1
 I19: x19 + y19 <= 1
 I20: x20 + y20 <= 1
 I21: x21 + y21 <= 1
 I22: x22 + y22 <= 1
 I23: x23 + y23 <= 1
 I24: x24 + y24 <= 1
 I25: x25 + y25 <= 1
 I26: x26 + y26 <= 1
 I27: x27 + y27 <= 1
 I28: x28 + y28 <= 1
 I29: x29 + y29 <= 1
 I30: x30 + y30 <= 1
 I31: x31 + y31 <= 1
 I32: x32 + y32 <= 1
 I33: x33 + y33 <= 1
 I34: x34 + y34 <= 1
 I35: x35 + y35 <= 1
 I36: x36 + y36 <= 1
 I37: x37 + y37 <= 1
 I38: x38 + y38 <= 1
 I39: x39 + y39 <= 1
 I40: x40 + y40 <= 1
 I41: x41 + y41 <= 1
 I42: x42 + y42 <= 1
 I43: x43 + y43 <= 1
 I44: x44 + y44 <= 1
 I45: x45 + y45 <= 1
 I46: x46 + y46 <= 1
 I47: x47 + y47 <= 1
 I48: x48 + y48 <= 1
 I49: x49 + y49 <= 1
 I50: x50 + y50 <= 1
 I51: x51 + y51 <= 1
 I52: x52 + y52 <= 1
 I53: x53 + y53 <= 1
 I54: x54 + y54 <= 1
 c_222: - 19 y0 - 39 y1 - 5 y2 - 70 y3 - 19 y4 - 14 y5 - 90 y6 - 33 y7
   - 80 y8 - 98 y9 - 11 y10 - 10 y11 - 55 y12 - 88 y13 - 15 y14 - 49 y15
   - 86 y16 - 63 y17 - 63 y18 - 19 y19 - 94 y20 - 82 y21 - 58 y22 - 45 y23
   - 95 y24 - 61 y25 - 97 y26 - 54 y27 - 43 y28 - 93 y29 - 51 y30 - y31
   - 23 y32 - 34 y33 - 53 y34 - 68 y35 - 28 y36 - 79 y37 - 58 y38 - 53 y39
   - 74 y40 - 6 y41 - 55 y42 - 49 y43 - 12 y44 - 71 y45 - 72 y46 - 87 y47
   - 22 y48 - 37 y49 - 37 y50 - 25 y51 - 17 y52 - 45 y53 - 81 y54 <= 0
Bounds
Binaries
 x0 x1 x2 x3 x4 x5 x6 x7 x8 x9 x10 x11 x12 x13 x14 x15 x16 x17 x18 x19 x20
 x21 x22 x23 x24 x25 x26 x27 x28 x29 x30 x31 x32 x33 x34 x35 x36 x37 x38
 x39 x40 x41 x42 x43 x44 x45 x46 x47 x48 x49 x50 x51 x52 x53 x54 y0 y1 y2
 y3 y4 y5 y6 y7 y8 y9 y10 y11 y12 y13 y14 y15 y16 y17 y18 y19 y20 y21 y22
 y23 y24 y25 y26 y27 y28 y29 y30 y31 y32 y33 y34 y35 y36 y37 y38 y39 y40
 y41 y42 y43 y44 y45 y46 y47 y48 y49 y50 y51 y52 y53 y54
End
